c Source: TUDataset PTC_MR, graph #146
c Original: n=10, m=10
c Augmented: +4 edges, n=11 -> m=14, circuit_rank=4
c Augmented to satisfy Eulerian condition (no parallel edges)
p sp 11
e 8 10
e 3 10
e 4 5
e 8 9
e 6 8
e 1 3
e 6 7
e 3 4
e 1 2
e 5 6
e 2 3
e 6 11
e 8 11
e 7 9
